\ This file has been generated by DOcplex
\ ENCODING=ISO-8859-1
\Problem name: random_problem.lp

Minimize
 obj: 0.204133999569 x0 + 0.037444811127 x1 + [ 0.127295467604 x0^2
      - 0.509800021172 x0*x1 - 0.226591597205 x1^2 ]/2
Subject To
 c0: - x0 = -1

Bounds
 0 <= x0 <= 1
 0 <= x1 <= 1

Binaries
 x0 x1
End
